2000, 3999997000
4002001, 612
4002002, 848
4002003, 772
4002004, 839
4002005, 739
4002006, 689
4002007, 98
4002008, 126
4002009, 5
4002010, 796
4002011, 256
4002012, 209
4002013, 914
4002014, 936
4002015, 681
4002016, 386
4002017, 741
4002018, 557
4002019, 585
4002020, 299
4002021, 667
4002022, 481
4002023, 821
4002024, 776
4002025, 204
4002026, 657
4002027, 134
4002028, 96
4002029, 521
4002030, 859
4002031, 710
4002032, 532
4002033, 380
4002034, 922
4002035, 896
4002036, 374
4002037, 186
4002038, 961
4002039, 44
4002040, 459
4002041, 387
4002042, 294
4002043, 624
4002044, 569
4002045, 128
4002046, 360
4002047, 815
4002048, 537
4002049, 68
4002050, 354
4002051, 126
4002052, 581
4002053, 276
4002054, 333
4002055, 985
4002056, 547
4002057, 398
4002058, 161
4002059, 554
4002060, 727
4002061, 53
4002062, 860
4002063, 442
4002064, 356
4002065, 114
4002066, 736
4002067, 221
4002068, 932
4002069, 860
4002070, 385
4002071, 242
4002072, 979
4002073, 745
4002074, 596
4002075, 960
4002076, 15
4002077, 954
4002078, 153
4002079, 194
4002080, 274
4002081, 586
4002082, 834
4002083, 923
4002084, 486
4002085, 311
4002086, 65
4002087, 250
4002088, 471
4002089, 367
4002090, 645
4002091, 775
4002092, 796
4002093, 604
4002094, 765
4002095, 932
4002096, 150
4002097, 776
4002098, 138
4002099, 404
4002100, 703
4002101, 233
4002102, 9
4002103, 750
4002104, 796
4002105, 366
4002106, 799
4002107, 578
4002108, 235
4002109, 663
4002110, 570
4002111, 706
4002112, 557
4002113, 536
4002114, 910
4002115, 274
4002116, 364
4002117, 870
4002118, 421
4002119, 17
4002120, 750
4002121, 992
4002122, 437
4002123, 613
4002124, 248
4002125, 822
4002126, 574
4002127, 562
4002128, 258
4002129, 493
4002130, 65
4002131, 139
4002132, 9
4002133, 961
4002134, 201
4002135, 207
4002136, 80
4002137, 657
4002138, 733
4002139, 93
4002140, 701
4002141, 71
4002142, 68
4002143, 303
4002144, 282
4002145, 789
4002146, 15
4002147, 163
4002148, 297
4002149, 464
4002150, 537
4002151, 300
4002152, 623
4002153, 799
4002154, 306
4002155, 725
4002156, 633
4002157, 28
4002158, 831
4002159, 590
4002160, 337
4002161, 449
4002162, 187
4002163, 124
4002164, 705
4002165, 661
4002166, 634
4002167, 805
4002168, 46
4002169, 756
4002170, 48
4002171, 753
4002172, 230
4002173, 754
4002174, 773
4002175, 354
4002176, 466
4002177, 64
4002178, 259
4002179, 788
4002180, 676
4002181, 308
4002182, 550
4002183, 693
4002184, 281
4002185, 622
4002186, 290
4002187, 869
4002188, 424
4002189, 461
4002190, 609
4002191, 247
4002192, 345
4002193, 261
4002194, 178
4002195, 870
4002196, 871
4002197, 299
4002198, 994
4002199, 56
4002200, 438
4002201, 990
4002202, 550
4002203, 342
4002204, 676
4002205, 808
4002206, 574
4002207, 481
4002208, 635
4002209, 539
4002210, 564
4002211, 374
4002212, 517
4002213, 820
4002214, 2
4002215, 459
4002216, 991
4002217, 683
4002218, 559
4002219, 495
4002220, 462
4002221, 216
4002222, 642
4002223, 333
4002224, 748
4002225, 391
4002226, 941
4002227, 545
4002228, 43
4002229, 445
4002230, 795
4002231, 177
4002232, 104
4002233, 16
4002234, 873
4002235, 628
4002236, 969
4002237, 593
4002238, 8
4002239, 686
4002240, 543
4002241, 589
4002242, 177
4002243, 874
4002244, 740
4002245, 80
4002246, 463
4002247, 910
4002248, 230
4002249, 264
4002250, 768
4002251, 530
4002252, 202
4002253, 727
4002254, 84
4002255, 608
4002256, 329
4002257, 649
4002258, 52
4002259, 613
4002260, 485
4002261, 185
4002262, 963
4002263, 438
4002264, 188
4002265, 400
4002266, 176
4002267, 964
4002268, 868
4002269, 558
4002270, 170
4002271, 8
4002272, 437
4002273, 926
4002274, 738
4002275, 118
4002276, 898
4002277, 390
4002278, 220
4002279, 862
4002280, 935
4002281, 20
4002282, 37
4002283, 382
4002284, 283
4002285, 465
4002286, 518
4002287, 96
4002288, 567
4002289, 481
4002290, 111
4002291, 442
4002292, 726
4002293, 257
4002294, 124
4002295, 673
4002296, 938
4002297, 527
4002298, 395
4002299, 684
4002300, 693
4002301, 270
4002302, 836
4002303, 934
4002304, 541
4002305, 814
4002306, 975
4002307, 124
4002308, 277
4002309, 975
4002310, 480
4002311, 707
4002312, 818
4002313, 175
4002314, 782
4002315, 315
4002316, 547
4002317, 302
4002318, 831
4002319, 654
4002320, 632
4002321, 593
4002322, 358
4002323, 232
4002324, 820
4002325, 732
4002326, 661
4002327, 448
4002328, 75
4002329, 174
4002330, 770
4002331, 350
4002332, 796
4002333, 304
4002334, 845
4002335, 778
4002336, 207
4002337, 382
4002338, 184
4002339, 123
4002340, 455
4002341, 68
4002342, 669
4002343, 989
4002344, 840
4002345, 609
4002346, 923
4002347, 625
4002348, 481
4002349, 687
4002350, 465
4002351, 856
4002352, 283
4002353, 120
4002354, 201
4002355, 40
4002356, 713
4002357, 618
4002358, 230
4002359, 805
4002360, 718
4002361, 828
4002362, 918
4002363, 616
4002364, 57
4002365, 806
4002366, 696
4002367, 316
4002368, 163
4002369, 956
4002370, 157
4002371, 563
4002372, 574
4002373, 371
4002374, 915
4002375, 892
4002376, 240
4002377, 282
4002378, 949
4002379, 784
4002380, 414
4002381, 122
4002382, 700
4002383, 40
4002384, 929
4002385, 422
4002386, 9
4002387, 528
4002388, 915
4002389, 131
4002390, 591
4002391, 199
4002392, 578
4002393, 737
4002394, 181
4002395, 540
4002396, 700
4002397, 255
4002398, 746
4002399, 930
4002400, 897
4002401, 314
4002402, 839
4002403, 388
4002404, 780
4002405, 734
4002406, 984
4002407, 345
4002408, 945
4002409, 91
4002410, 74
4002411, 736
4002412, 784
4002413, 985
4002414, 782
4002415, 309
4002416, 464
4002417, 675
4002418, 460
4002419, 226
4002420, 804
4002421, 472
4002422, 296
4002423, 414
4002424, 121
4002425, 460
4002426, 881
4002427, 145
4002428, 149
4002429, 147
4002430, 748
4002431, 485
4002432, 433
4002433, 79
4002434, 372
4002435, 326
4002436, 560
4002437, 676
4002438, 21
4002439, 90
4002440, 373
4002441, 874
4002442, 300
4002443, 34
4002444, 216
4002445, 714
4002446, 96
4002447, 751
4002448, 801
4002449, 248
4002450, 812
4002451, 397
4002452, 715
4002453, 455
4002454, 754
4002455, 330
4002456, 930
4002457, 632
4002458, 544
4002459, 735
4002460, 21
4002461, 938
4002462, 471
4002463, 942
4002464, 428
4002465, 850
4002466, 286
4002467, 50
4002468, 170
4002469, 941
4002470, 419
4002471, 209
4002472, 67
4002473, 633
4002474, 450
4002475, 549
4002476, 855
4002477, 159
4002478, 3
4002479, 974
4002480, 885
4002481, 467
4002482, 128
4002483, 473
4002484, 768
4002485, 282
4002486, 683
4002487, 68
4002488, 637
4002489, 850
4002490, 868
4002491, 990
4002492, 914
4002493, 549
4002494, 289
4002495, 51
4002496, 881
4002497, 781
4002498, 716
4002499, 822
4002500, 986
4002501, 257
4002502, 136
4002503, 717
4002504, 620
4002505, 230
4002506, 236
4002507, 728
4002508, 668
4002509, 295
4002510, 645
4002511, 146
4002512, 339
4002513, 358
4002514, 367
4002515, 398
4002516, 787
4002517, 935
4002518, 357
4002519, 522
4002520, 410
4002521, 507
4002522, 884
4002523, 511
4002524, 470
4002525, 834
4002526, 564
4002527, 854
4002528, 703
4002529, 823
4002530, 358
4002531, 948
4002532, 808
4002533, 600
4002534, 990
4002535, 262
4002536, 430
4002537, 323
4002538, 882
4002539, 189
4002540, 958
4002541, 338
4002542, 856
4002543, 59
4002544, 659
4002545, 751
4002546, 443
4002547, 292
4002548, 357
4002549, 72
4002550, 231
4002551, 334
4002552, 170
4002553, 155
4002554, 96
4002555, 328
4002556, 688
4002557, 915
4002558, 239
4002559, 494
4002560, 960
4002561, 889
4002562, 276
4002563, 186
4002564, 797
4002565, 243
4002566, 796
4002567, 492
4002568, 266
4002569, 127
4002570, 364
4002571, 147
4002572, 847
4002573, 696
4002574, 491
4002575, 642
4002576, 445
4002577, 792
4002578, 428
4002579, 563
4002580, 156
4002581, 708
4002582, 361
4002583, 358
4002584, 251
4002585, 211
4002586, 416
4002587, 331
4002588, 512
4002589, 470
4002590, 634
4002591, 539
4002592, 499
4002593, 513
4002594, 678
4002595, 786
4002596, 839
4002597, 728
4002598, 186
4002599, 39
4002600, 737
4002601, 451
4002602, 562
4002603, 538
4002604, 846
4002605, 609
4002606, 862
4002607, 85
4002608, 305
4002609, 520
4002610, 840
4002611, 452
4002612, 842
4002613, 115
4002614, 859
4002615, 348
4002616, 983
4002617, 498
4002618, 829
4002619, 950
4002620, 622
4002621, 893
4002622, 445
4002623, 325
4002624, 832
4002625, 193
4002626, 493
4002627, 611
4002628, 16
4002629, 153
4002630, 576
4002631, 600
4002632, 378
4002633, 765
4002634, 564
4002635, 515
4002636, 980
4002637, 518
4002638, 193
4002639, 406
4002640, 375
4002641, 199
4002642, 384
4002643, 317
4002644, 22
4002645, 149
4002646, 133
4002647, 599
4002648, 581
4002649, 128
4002650, 149
4002651, 763
4002652, 491
4002653, 759
4002654, 840
4002655, 804
4002656, 184
4002657, 631
4002658, 671
4002659, 53
4002660, 143
4002661, 372
4002662, 510
4002663, 149
4002664, 4
4002665, 358
4002666, 755
4002667, 500
4002668, 479
4002669, 877
4002670, 284
4002671, 284
4002672, 583
4002673, 133
4002674, 653
4002675, 896
4002676, 439
4002677, 914
4002678, 871
4002679, 567
4002680, 661
4002681, 757
4002682, 570
4002683, 593
4002684, 405
4002685, 508
4002686, 691
4002687, 656
4002688, 489
4002689, 493
4002690, 350
4002691, 393
4002692, 412
4002693, 291
4002694, 749
4002695, 552
4002696, 865
4002697, 103
4002698, 885
4002699, 103
4002700, 616
4002701, 408
4002702, 384
4002703, 390
4002704, 458
4002705, 114
4002706, 389
4002707, 932
4002708, 943
4002709, 267
4002710, 50
4002711, 932
4002712, 143
4002713, 513
4002714, 186
4002715, 344
4002716, 997
4002717, 37
4002718, 903
4002719, 666
4002720, 789
4002721, 770
4002722, 864
4002723, 477
4002724, 111
4002725, 413
4002726, 139
4002727, 192
4002728, 280
4002729, 670
4002730, 340
4002731, 754
4002732, 96
4002733, 86
4002734, 83
4002735, 870
4002736, 214
4002737, 63
4002738, 18
4002739, 849
4002740, 86
4002741, 654
4002742, 852
4002743, 39
4002744, 347
4002745, 908
4002746, 719
4002747, 984
4002748, 92
4002749, 552
4002750, 650
4002751, 8
4002752, 882
4002753, 526
4002754, 791
4002755, 610
4002756, 384
4002757, 138
4002758, 234
4002759, 461
4002760, 914
4002761, 365
4002762, 143
4002763, 447
4002764, 950
4002765, 455
4002766, 15
4002767, 84
4002768, 277
4002769, 650
4002770, 139
4002771, 503
4002772, 914
4002773, 741
4002774, 447
4002775, 894
4002776, 73
4002777, 942
4002778, 272
4002779, 794
4002780, 409
4002781, 46
4002782, 350
4002783, 804
4002784, 250
4002785, 977
4002786, 786
4002787, 649
4002788, 127
4002789, 899
4002790, 224
4002791, 215
4002792, 477
4002793, 683
4002794, 526
4002795, 437
4002796, 753
4002797, 611
4002798, 867
4002799, 262
4002800, 710
4002801, 821
4002802, 824
4002803, 86
4002804, 860
4002805, 479
4002806, 26
4002807, 971
4002808, 465
4002809, 656
4002810, 173
4002811, 172
4002812, 884
4002813, 272
4002814, 722
4002815, 229
4002816, 292
4002817, 115
4002818, 505
4002819, 177
4002820, 333
4002821, 630
4002822, 495
4002823, 142
4002824, 402
4002825, 560
4002826, 577
4002827, 268
4002828, 403
4002829, 226
4002830, 663
4002831, 429
4002832, 745
4002833, 887
4002834, 937
4002835, 54
4002836, 189
4002837, 556
4002838, 869
4002839, 788
4002840, 676
4002841, 592
4002842, 854
4002843, 472
4002844, 957
4002845, 37
4002846, 822
4002847, 835
4002848, 720
4002849, 908
4002850, 916
4002851, 778
4002852, 344
4002853, 29
4002854, 734
4002855, 634
4002856, 146
4002857, 108
4002858, 984
4002859, 244
4002860, 99
4002861, 708
4002862, 195
4002863, 234
4002864, 150
4002865, 816
4002866, 663
4002867, 447
4002868, 819
4002869, 588
4002870, 800
4002871, 187
4002872, 144
4002873, 880
4002874, 276
4002875, 629
4002876, 604
4002877, 412
4002878, 746
4002879, 302
4002880, 918
4002881, 453
4002882, 340
4002883, 868
4002884, 138
4002885, 606
4002886, 901
4002887, 35
4002888, 443
4002889, 687
4002890, 100
4002891, 925
4002892, 2
4002893, 458
4002894, 479
4002895, 987
4002896, 877
4002897, 912
4002898, 240
4002899, 754
4002900, 304
4002901, 447
4002902, 427
4002903, 87
4002904, 551
4002905, 631
4002906, 277
4002907, 354
4002908, 857
4002909, 447
4002910, 374
4002911, 822
4002912, 806
4002913, 756
4002914, 991
4002915, 311
4002916, 402
4002917, 955
4002918, 220
4002919, 42
4002920, 199
4002921, 114
4002922, 915
4002923, 240
4002924, 390
4002925, 442
4002926, 123
4002927, 434
4002928, 254
4002929, 223
4002930, 430
4002931, 702
4002932, 419
4002933, 573
4002934, 422
4002935, 992
4002936, 104
4002937, 29
4002938, 771
4002939, 465
4002940, 68
4002941, 253
4002942, 602
4002943, 972
4002944, 489
4002945, 547
4002946, 847
4002947, 723
4002948, 287
4002949, 795
4002950, 972
4002951, 717
4002952, 101
4002953, 963
4002954, 599
4002955, 691
4002956, 144
4002957, 390
4002958, 143
4002959, 502
4002960, 570
4002961, 805
4002962, 311
4002963, 835
4002964, 964
4002965, 535
4002966, 642
4002967, 110
4002968, 723
4002969, 610
4002970, 380
4002971, 137
4002972, 438
4002973, 895
4002974, 23
4002975, 734
4002976, 237
4002977, 697
4002978, 307
4002979, 448
4002980, 964
4002981, 6
4002982, 307
4002983, 126
4002984, 445
4002985, 900
4002986, 295
4002987, 240
4002988, 729
4002989, 428
4002990, 564
4002991, 303
4002992, 919
4002993, 491
4002994, 629
4002995, 352
4002996, 587
4002997, 459
4002998, 229
4002999, 442
4003000, 616
4003001, 990
4003002, 402
4003003, 355
4003004, 918
4003005, 947
4003006, 163
4003007, 142
4003008, 204
4003009, 502
4003010, 586
4003011, 911
4003012, 950
4003013, 204
4003014, 275
4003015, 116
4003016, 519
4003017, 564
4003018, 538
4003019, 854
4003020, 792
4003021, 862
4003022, 761
4003023, 413
4003024, 79
4003025, 735
4003026, 823
4003027, 47
4003028, 408
4003029, 67
4003030, 505
4003031, 74
4003032, 415
4003033, 801
4003034, 564
4003035, 805
4003036, 859
4003037, 914
4003038, 400
4003039, 770
4003040, 45
4003041, 874
4003042, 910
4003043, 302
4003044, 790
4003045, 541
4003046, 699
4003047, 183
4003048, 308
4003049, 907
4003050, 826
4003051, 804
4003052, 84
4003053, 227
4003054, 181
4003055, 585
4003056, 881
4003057, 915
4003058, 29
4003059, 968
4003060, 611
4003061, 38
4003062, 301
4003063, 800
4003064, 745
4003065, 300
4003066, 218
4003067, 688
4003068, 391
4003069, 261
4003070, 485
4003071, 204
4003072, 48
4003073, 557
4003074, 726
4003075, 55
4003076, 156
4003077, 457
4003078, 787
4003079, 375
4003080, 698
4003081, 369
4003082, 559
4003083, 693
4003084, 831
4003085, 948
4003086, 866
4003087, 369
4003088, 797
4003089, 942
4003090, 103
4003091, 585
4003092, 597
4003093, 108
4003094, 321
4003095, 122
4003096, 476
4003097, 885
4003098, 276
4003099, 845
4003100, 297
4003101, 651
4003102, 410
4003103, 763
4003104, 989
4003105, 440
4003106, 667
4003107, 465
4003108, 161
4003109, 473
4003110, 131
4003111, 980
4003112, 307
4003113, 38
4003114, 839
4003115, 918
4003116, 473
4003117, 975
4003118, 343
4003119, 839
4003120, 251
4003121, 440
4003122, 797
4003123, 931
4003124, 452
4003125, 965
4003126, 357
4003127, 458
4003128, 418
4003129, 422
4003130, 171
4003131, 91
4003132, 809
4003133, 860
4003134, 223
4003135, 143
4003136, 380
4003137, 537
4003138, 347
4003139, 284
4003140, 172
4003141, 892
4003142, 139
4003143, 15
4003144, 269
4003145, 946
4003146, 483
4003147, 232
4003148, 560
4003149, 397
4003150, 676
4003151, 793
4003152, 675
4003153, 129
4003154, 496
4003155, 239
4003156, 578
4003157, 873
4003158, 417
4003159, 671
4003160, 154
4003161, 342
4003162, 669
4003163, 761
4003164, 720
4003165, 192
4003166, 772
4003167, 857
4003168, 741
4003169, 594
4003170, 447
4003171, 168
4003172, 708
4003173, 825
4003174, 267
4003175, 622
4003176, 834
4003177, 757
4003178, 348
4003179, 91
4003180, 677
4003181, 775
4003182, 130
4003183, 657
4003184, 941
4003185, 937
4003186, 622
4003187, 308
4003188, 982
4003189, 40
4003190, 765
4003191, 745
4003192, 851
4003193, 789
4003194, 364
4003195, 281
4003196, 292
4003197, 807
4003198, 529
4003199, 455
4003200, 192
4003201, 130
4003202, 688
4003203, 501
4003204, 675
4003205, 130
4003206, 219
4003207, 147
4003208, 977
4003209, 240
4003210, 864
4003211, 216
4003212, 808
4003213, 219
4003214, 743
4003215, 750
4003216, 354
4003217, 800
4003218, 905
4003219, 617
4003220, 24
4003221, 771
4003222, 985
4003223, 792
4003224, 927
4003225, 139
4003226, 606
4003227, 235
4003228, 254
4003229, 665
4003230, 975
4003231, 850
4003232, 846
4003233, 920
4003234, 789
4003235, 556
4003236, 136
4003237, 254
4003238, 60
4003239, 709
4003240, 578
4003241, 777
4003242, 545
4003243, 285
4003244, 82
4003245, 443
4003246, 525
4003247, 824
4003248, 440
4003249, 950
4003250, 552
4003251, 816
4003252, 648
4003253, 304
4003254, 790
4003255, 197
4003256, 381
4003257, 136
4003258, 765
4003259, 997
4003260, 887
4003261, 438
4003262, 596
4003263, 307
4003264, 110
4003265, 278
4003266, 158
4003267, 251
4003268, 131
4003269, 589
4003270, 828
4003271, 44
4003272, 101
4003273, 962
4003274, 638
4003275, 564
4003276, 370
4003277, 478
4003278, 850
4003279, 103
4003280, 585
4003281, 652
4003282, 747
4003283, 360
4003284, 598
4003285, 145
4003286, 499
4003287, 910
4003288, 934
4003289, 772
4003290, 152
4003291, 392
4003292, 430
4003293, 871
4003294, 986
4003295, 585
4003296, 663
4003297, 835
4003298, 491
4003299, 140
4003300, 109
4003301, 552
4003302, 941
4003303, 960
4003304, 3
4003305, 394
4003306, 807
4003307, 420
4003308, 448
4003309, 492
4003310, 776
4003311, 939
4003312, 940
4003313, 441
4003314, 650
4003315, 882
4003316, 67
4003317, 725
4003318, 839
4003319, 661
4003320, 536
4003321, 952
4003322, 47
4003323, 796
4003324, 403
4003325, 162
4003326, 720
4003327, 459
4003328, 643
4003329, 520
4003330, 524
4003331, 582
4003332, 676
4003333, 757
4003334, 574
4003335, 297
4003336, 882
4003337, 633
4003338, 20
4003339, 885
4003340, 475
4003341, 981
4003342, 966
4003343, 733
4003344, 769
4003345, 908
4003346, 309
4003347, 948
4003348, 141
4003349, 908
4003350, 844
4003351, 776
4003352, 389
4003353, 602
4003354, 690
4003355, 970
4003356, 190
4003357, 969
4003358, 390
4003359, 339
4003360, 33
4003361, 163
4003362, 569
4003363, 16
4003364, 562
4003365, 573
4003366, 183
4003367, 967
4003368, 420
4003369, 583
4003370, 997
4003371, 591
4003372, 334
4003373, 466
4003374, 236
4003375, 819
4003376, 56
4003377, 359
4003378, 244
4003379, 607
4003380, 982
4003381, 534
4003382, 473
4003383, 921
4003384, 515
4003385, 756
4003386, 594
4003387, 985
4003388, 479
4003389, 499
4003390, 492
4003391, 369
4003392, 433
4003393, 781
4003394, 626
4003395, 204
4003396, 133
4003397, 881
4003398, 176
4003399, 34
4003400, 351
4003401, 916
4003402, 219
4003403, 451
4003404, 222
4003405, 561
4003406, 898
4003407, 455
4003408, 265
4003409, 713
4003410, 239
4003411, 972
4003412, 388
4003413, 987
4003414, 391
4003415, 687
4003416, 364
4003417, 893
4003418, 5
4003419, 177
4003420, 22
4003421, 632
4003422, 98
4003423, 107
4003424, 516
4003425, 583
4003426, 208
4003427, 81
4003428, 239
4003429, 688
4003430, 145
4003431, 171
4003432, 173
4003433, 633
4003434, 12
4003435, 879
4003436, 524
4003437, 387
4003438, 480
4003439, 824
4003440, 717
4003441, 99
4003442, 287
4003443, 937
4003444, 801
4003445, 619
4003446, 356
4003447, 506
4003448, 559
4003449, 845
4003450, 748
4003451, 362
4003452, 660
4003453, 8
4003454, 808
4003455, 810
4003456, 320
4003457, 608
4003458, 921
4003459, 416
4003460, 199
4003461, 66
4003462, 419
4003463, 728
4003464, 405
4003465, 660
4003466, 978
4003467, 596
4003468, 640
4003469, 873
4003470, 247
4003471, 70
4003472, 930
4003473, 171
4003474, 611
4003475, 944
4003476, 100
4003477, 551
4003478, 881
4003479, 530
4003480, 972
4003481, 556
4003482, 104
4003483, 204
4003484, 143
4003485, 915
4003486, 951
4003487, 47
4003488, 647
4003489, 968
4003490, 359
4003491, 543
4003492, 117
4003493, 703
4003494, 524
4003495, 963
4003496, 359
4003497, 535
4003498, 492
4003499, 619
4003500, 915
4003501, 394
4003502, 741
4003503, 313
4003504, 530
4003505, 882
4003506, 842
4003507, 168
4003508, 725
4003509, 861
4003510, 799
4003511, 904
4003512, 891
4003513, 274
4003514, 824
4003515, 255
4003516, 985
4003517, 793
4003518, 765
4003519, 40
4003520, 767
4003521, 959
4003522, 81
4003523, 904
4003524, 809
4003525, 255
4003526, 806
4003527, 523
4003528, 931
4003529, 585
4003530, 825
4003531, 995
4003532, 940
4003533, 734
4003534, 244
4003535, 449
4003536, 595
4003537, 329
4003538, 110
4003539, 513
4003540, 597
4003541, 863
4003542, 388
4003543, 818
4003544, 732
4003545, 783
4003546, 948
4003547, 499
4003548, 512
4003549, 707
4003550, 668
4003551, 463
4003552, 290
4003553, 773
4003554, 751
4003555, 841
4003556, 532
4003557, 370
4003558, 63
4003559, 608
4003560, 602
4003561, 378
4003562, 363
4003563, 564
4003564, 475
4003565, 773
4003566, 323
4003567, 158
4003568, 911
4003569, 46
4003570, 150
4003571, 867
4003572, 466
4003573, 876
4003574, 770
4003575, 74
4003576, 327
4003577, 660
4003578, 292
4003579, 569
4003580, 894
4003581, 727
4003582, 315
4003583, 659
4003584, 47
4003585, 194
4003586, 57
4003587, 668
4003588, 380
4003589, 272
4003590, 753
4003591, 930
4003592, 642
4003593, 378
4003594, 138
4003595, 870
4003596, 464
4003597, 455
4003598, 521
4003599, 825
4003600, 85
4003601, 923
4003602, 754
4003603, 327
4003604, 365
4003605, 916
4003606, 912
4003607, 142
4003608, 405
4003609, 791
4003610, 976
4003611, 167
4003612, 18
4003613, 119
4003614, 746
4003615, 908
4003616, 190
4003617, 22
4003618, 727
4003619, 400
4003620, 602
4003621, 610
4003622, 43
4003623, 401
4003624, 589
4003625, 625
4003626, 740
4003627, 745
4003628, 835
4003629, 4
4003630, 792
4003631, 16
4003632, 565
4003633, 783
4003634, 171
4003635, 331
4003636, 727
4003637, 999
4003638, 142
4003639, 16
4003640, 813
4003641, 754
4003642, 144
4003643, 55
4003644, 580
4003645, 602
4003646, 865
4003647, 474
4003648, 903
4003649, 762
4003650, 217
4003651, 533
4003652, 119
4003653, 510
4003654, 245
4003655, 862
4003656, 737
4003657, 919
4003658, 626
4003659, 101
4003660, 284
4003661, 533
4003662, 304
4003663, 877
4003664, 47
4003665, 714
4003666, 727
4003667, 601
4003668, 359
4003669, 413
4003670, 684
4003671, 39
4003672, 62
4003673, 156
4003674, 133
4003675, 648
4003676, 901
4003677, 768
4003678, 464
4003679, 397
4003680, 266
4003681, 404
4003682, 256
4003683, 603
4003684, 10
4003685, 310
4003686, 992
4003687, 591
4003688, 384
4003689, 268
4003690, 389
4003691, 987
4003692, 307
4003693, 504
4003694, 343
4003695, 487
4003696, 556
4003697, 180
4003698, 944
4003699, 855
4003700, 685
4003701, 30
4003702, 347
4003703, 931
4003704, 842
4003705, 189
4003706, 141
4003707, 178
4003708, 539
4003709, 761
4003710, 880
4003711, 13
4003712, 496
4003713, 294
4003714, 59
4003715, 954
4003716, 211
4003717, 25
4003718, 490
4003719, 678
4003720, 145
4003721, 841
4003722, 699
4003723, 849
4003724, 513
4003725, 391
4003726, 6
4003727, 77
4003728, 730
4003729, 878
4003730, 740
4003731, 575
4003732, 305
4003733, 515
4003734, 825
4003735, 852
4003736, 272
4003737, 501
4003738, 338
4003739, 821
4003740, 528
4003741, 573
4003742, 135
4003743, 979
4003744, 631
4003745, 551
4003746, 937
4003747, 954
4003748, 826
4003749, 959
4003750, 580
4003751, 538
4003752, 668
4003753, 53
4003754, 110
4003755, 825
4003756, 716
4003757, 905
4003758, 630
4003759, 273
4003760, 787
4003761, 262
4003762, 77
4003763, 192
4003764, 355
4003765, 514
4003766, 272
4003767, 139
4003768, 296
4003769, 220
4003770, 411
4003771, 977
4003772, 866
4003773, 493
4003774, 831
4003775, 797
4003776, 9
4003777, 591
4003778, 100
4003779, 996
4003780, 295
4003781, 112
4003782, 463
4003783, 163
4003784, 537
4003785, 695
4003786, 61
4003787, 417
4003788, 190
4003789, 421
4003790, 245
4003791, 19
4003792, 166
4003793, 990
4003794, 282
4003795, 82
4003796, 891
4003797, 581
4003798, 830
4003799, 950
4003800, 819
4003801, 298
4003802, 384
4003803, 222
4003804, 227
4003805, 335
4003806, 406
4003807, 541
4003808, 717
4003809, 134
4003810, 491
4003811, 239
4003812, 586
4003813, 92
4003814, 930
4003815, 521
4003816, 456
4003817, 329
4003818, 208
4003819, 667
4003820, 174
4003821, 797
4003822, 541
4003823, 105
4003824, 426
4003825, 268
4003826, 811
4003827, 821
4003828, 129
4003829, 243
4003830, 917
4003831, 831
4003832, 807
4003833, 712
4003834, 105
4003835, 525
4003836, 274
4003837, 13
4003838, 854
4003839, 794
4003840, 539
4003841, 604
4003842, 246
4003843, 730
4003844, 836
4003845, 460
4003846, 917
4003847, 980
4003848, 218
4003849, 458
4003850, 959
4003851, 710
4003852, 356
4003853, 265
4003854, 437
4003855, 220
4003856, 777
4003857, 770
4003858, 216
4003859, 114
4003860, 894
4003861, 100
4003862, 988
4003863, 884
4003864, 773
4003865, 388
4003866, 182
4003867, 908
4003868, 951
4003869, 533
4003870, 862
4003871, 84
4003872, 51
4003873, 554
4003874, 469
4003875, 87
4003876, 67
4003877, 518
4003878, 560
4003879, 772
4003880, 525
4003881, 634
4003882, 978
4003883, 659
4003884, 856
4003885, 775
4003886, 629
4003887, 597
4003888, 386
4003889, 807
4003890, 265
4003891, 111
4003892, 144
4003893, 128
4003894, 347
4003895, 103
4003896, 590
4003897, 824
4003898, 295
4003899, 901
4003900, 218
4003901, 209
4003902, 646
4003903, 931
4003904, 573
4003905, 590
4003906, 921
4003907, 269
4003908, 953
4003909, 780
4003910, 627
4003911, 945
4003912, 435
4003913, 810
4003914, 194
4003915, 800
4003916, 826
4003917, 960
4003918, 341
4003919, 995
4003920, 382
4003921, 771
4003922, 791
4003923, 278
4003924, 897
4003925, 487
4003926, 274
4003927, 15
4003928, 441
4003929, 835
4003930, 365
4003931, 23
4003932, 515
4003933, 16
4003934, 622
4003935, 527
4003936, 441
4003937, 978
4003938, 504
4003939, 196
4003940, 413
4003941, 525
4003942, 342
4003943, 116
4003944, 595
4003945, 728
4003946, 773
4003947, 894
4003948, 74
4003949, 413
4003950, 581
4003951, 765
4003952, 395
4003953, 486
4003954, 336
4003955, 181
4003956, 816
4003957, 705
4003958, 882
4003959, 652
4003960, 870
4003961, 405
4003962, 630
4003963, 354
4003964, 27
4003965, 34
4003966, 767
4003967, 721
4003968, 951
4003969, 36
4003970, 484
4003971, 756
4003972, 199
4003973, 497
4003974, 993
4003975, 483
4003976, 269
4003977, 933
4003978, 13
4003979, 846
4003980, 673
4003981, 172
4003982, 126
4003983, 661
4003984, 90
4003985, 416
4003986, 830
4003987, 774
4003988, 773
4003989, 367
4003990, 953
4003991, 262
4003992, 613
4003993, 558
4003994, 996
4003995, 606
4003996, 320
4003997, 631
4003998, 703
4003999, 575
4004000, 344
